(set-option :produce-models true)
;(set-option :produce-assignments true)
(set-logic QF_LIA)
(declare-fun x () Int)
(declare-fun y () Int)
(assert (= (+ x (* 2 y)) 20))
;(assert (= (- x y) 2))
(check-sat)
(get-value (x y))
;(get-assignment)
(exit)
